% Logging successfully configured
%%%mzn-stat: initTime=0.041717651
%%%mzn-stat: objective=436
%%%mzn-stat: nodes=517156
%%%mzn-stat: restarts=0
%%%mzn-stat: peakDepth=2250
%%%mzn-stat: solveTime=450.649210024
%%%mzn-stat: variables=3218
%%%mzn-stat: propagators=2719
%%%mzn-stat: failures=406309
%%%mzn-stat: propagations=11453872
%%%mzn-stat: nogoods=406309
%%%mzn-stat: numAtomicConstraintsPropagated=0
%%%mzn-stat: allDifferentNumber1PropagationsTotal=1543981
%%%mzn-stat: allDifferentNumber1PropagationsThatFoundConflict=123692
%%%mzn-stat: allDifferentNumber1PropagationsThatPruned=884596
%%%mzn-stat: allDifferentNumber1TotalValuesPruned=4429455
%%%mzn-stat: allDifferentNumber1TotalHallSetSizeConflict=593367
%%%mzn-stat: allDifferentNumber1NumberOfConflicts=123692
%%%mzn-stat: allDifferentNumber1MaxHallSetSizeConflict=18
%%%mzn-stat: allDifferentNumber1TotalPruningHallSetSize=12852863
%%%mzn-stat: allDifferentNumber1NumberOfPruningExplanations=4429455
%%%mzn-stat: allDifferentNumber1MaxPruningHallSetSize=30
%%%mzn-stat: allDifferentNumber1TotalFixedEdgesAtConflict=10889687
%%%mzn-stat: allDifferentNumber1TotalVarsInvolvedInPruning=3489719
%%%mzn-stat: allDifferentNumber1MaxValuesPrunedFromSingleVar=8
%%%mzn-stat: allDifferentNumber1TotalSccSizeAtPruning=5827409
%%%mzn-stat: allDifferentNumber1NumberOfSccPruningCalls=884596
%%%mzn-stat: circuitNumber2PropagationsThatFoundConflict=36501
%%%mzn-stat: circuitNumber2TotalFixedEdgesAtConflict=3215061
%%%mzn-stat: circuitNumber2NumberOfConflicts=36501
%%%mzn-stat: circuitNumber2PropagationsThatPruned=65817
%%%mzn-stat: circuitNumber2PropagationsTotal=615235
%%%mzn-stat: AverageConflictSize=17.53352743847663
%%%mzn-stat: NumUnitNogoodsLearned=0
%%%mzn-stat: AverageLearnedNogoodLength=56.368236982198276
%%%mzn-stat: AverageBacktrackAmount=0
%%%mzn-stat: AverageLbd=33.043383237880526
%%%mzn-stat: 2AutonomousSearchNumBackupCalled=2165
%%%mzn-stat: 2AutonomousSearchNumPredicatesRemoved=0
%%%mzn-stat: 2AutonomousSearchNumCalls=2166
%%%mzn-stat: 2AutonomousSearchNumPredicatesAdded=1954
%%%mzn-stat: 2AutonomousSearchAverageSizeOfHeap=0.9021237303785781
%%%mzn-stat: 2AutonomousSearchNumAssignedPredicatesEncountered=1954
%%%mzn-stat-end
maxleg = 436;
succ = array1d(1..100,[4, 5, 8, 10, 1, 9, 2, 11, 18, 13, 15, 14, 19, 7, 16, 17, 27, 28, 3, 31, 25, 6, 22, 23, 37, 12, 29, 20, 36, 24, 33, 42, 44, 26, 30, 46, 38, 39, 47, 34, 21, 50, 35, 49, 40, 48, 52, 51, 56, 58, 53, 32, 54, 63, 59, 60, 41, 61, 64, 57, 62, 65, 68, 69, 67, 43, 76, 75, 72, 73, 55, 74, 66, 77, 78, 86, 79, 80, 81, 93, 89, 84, 70, 71, 45, 100, 82, 83, 95, 96, 98, 94, 99, 88, 90, 85, 87, 97, 92, 91]);
% time elapsed: 453.85 s
----------
%%%mzn-stat: initTime=0.041717651
%%%mzn-stat: objective=405
%%%mzn-stat: nodes=519389
%%%mzn-stat: restarts=0
%%%mzn-stat: peakDepth=2250
%%%mzn-stat: solveTime=450.677216608
%%%mzn-stat: variables=3218
%%%mzn-stat: propagators=2719
%%%mzn-stat: failures=406309
%%%mzn-stat: propagations=11458260
%%%mzn-stat: nogoods=406309
%%%mzn-stat: numAtomicConstraintsPropagated=0
%%%mzn-stat: allDifferentNumber1PropagationsTotal=1544159
%%%mzn-stat: allDifferentNumber1PropagationsThatFoundConflict=123692
%%%mzn-stat: allDifferentNumber1PropagationsThatPruned=884686
%%%mzn-stat: allDifferentNumber1TotalValuesPruned=4430570
%%%mzn-stat: allDifferentNumber1TotalHallSetSizeConflict=593367
%%%mzn-stat: allDifferentNumber1NumberOfConflicts=123692
%%%mzn-stat: allDifferentNumber1MaxHallSetSizeConflict=18
%%%mzn-stat: allDifferentNumber1TotalPruningHallSetSize=12854281
%%%mzn-stat: allDifferentNumber1NumberOfPruningExplanations=4430570
%%%mzn-stat: allDifferentNumber1MaxPruningHallSetSize=30
%%%mzn-stat: allDifferentNumber1TotalFixedEdgesAtConflict=10889687
%%%mzn-stat: allDifferentNumber1TotalVarsInvolvedInPruning=3490815
%%%mzn-stat: allDifferentNumber1MaxValuesPrunedFromSingleVar=8
%%%mzn-stat: allDifferentNumber1TotalSccSizeAtPruning=5827638
%%%mzn-stat: allDifferentNumber1NumberOfSccPruningCalls=884686
%%%mzn-stat: circuitNumber2PropagationsThatFoundConflict=36501
%%%mzn-stat: circuitNumber2TotalFixedEdgesAtConflict=3215061
%%%mzn-stat: circuitNumber2NumberOfConflicts=36501
%%%mzn-stat: circuitNumber2PropagationsThatPruned=65819
%%%mzn-stat: circuitNumber2PropagationsTotal=615324
%%%mzn-stat: AverageConflictSize=17.53352743847663
%%%mzn-stat: NumUnitNogoodsLearned=0
%%%mzn-stat: AverageLearnedNogoodLength=56.368236982198276
%%%mzn-stat: AverageBacktrackAmount=0
%%%mzn-stat: AverageLbd=33.043383237880526
%%%mzn-stat: 2AutonomousSearchNumBackupCalled=4313
%%%mzn-stat: 2AutonomousSearchNumPredicatesRemoved=0
%%%mzn-stat: 2AutonomousSearchNumCalls=4315
%%%mzn-stat: 2AutonomousSearchNumPredicatesAdded=1954
%%%mzn-stat: 2AutonomousSearchAverageSizeOfHeap=0.9056778679026651
%%%mzn-stat: 2AutonomousSearchNumAssignedPredicatesEncountered=3908
%%%mzn-stat-end
maxleg = 405;
succ = array1d(1..100,[4, 5, 8, 10, 1, 9, 2, 11, 18, 13, 15, 14, 19, 7, 16, 17, 27, 28, 3, 31, 25, 6, 22, 23, 37, 12, 29, 20, 36, 24, 33, 42, 44, 26, 30, 46, 38, 39, 47, 34, 21, 50, 35, 49, 40, 48, 52, 51, 56, 58, 53, 32, 54, 63, 59, 60, 41, 61, 64, 57, 62, 65, 68, 69, 67, 43, 76, 75, 72, 73, 55, 74, 66, 77, 78, 86, 79, 80, 81, 93, 89, 84, 70, 71, 45, 100, 82, 92, 95, 96, 98, 94, 99, 83, 90, 85, 87, 97, 88, 91]);
% time elapsed: 453.85 s
----------
%%%mzn-stat: initTime=0.041717651
%%%mzn-stat: objective=403
%%%mzn-stat: nodes=521625
%%%mzn-stat: restarts=0
%%%mzn-stat: peakDepth=2250
%%%mzn-stat: solveTime=450.705754351
%%%mzn-stat: variables=3218
%%%mzn-stat: propagators=2719
%%%mzn-stat: failures=406309
%%%mzn-stat: propagations=11462700
%%%mzn-stat: nogoods=406309
%%%mzn-stat: numAtomicConstraintsPropagated=0
%%%mzn-stat: allDifferentNumber1PropagationsTotal=1544337
%%%mzn-stat: allDifferentNumber1PropagationsThatFoundConflict=123692
%%%mzn-stat: allDifferentNumber1PropagationsThatPruned=884776
%%%mzn-stat: allDifferentNumber1TotalValuesPruned=4431666
%%%mzn-stat: allDifferentNumber1TotalHallSetSizeConflict=593367
%%%mzn-stat: allDifferentNumber1NumberOfConflicts=123692
%%%mzn-stat: allDifferentNumber1MaxHallSetSizeConflict=18
%%%mzn-stat: allDifferentNumber1TotalPruningHallSetSize=12855614
%%%mzn-stat: allDifferentNumber1NumberOfPruningExplanations=4431666
%%%mzn-stat: allDifferentNumber1MaxPruningHallSetSize=30
%%%mzn-stat: allDifferentNumber1TotalFixedEdgesAtConflict=10889687
%%%mzn-stat: allDifferentNumber1TotalVarsInvolvedInPruning=3491900
%%%mzn-stat: allDifferentNumber1MaxValuesPrunedFromSingleVar=8
%%%mzn-stat: allDifferentNumber1TotalSccSizeAtPruning=5827853
%%%mzn-stat: allDifferentNumber1NumberOfSccPruningCalls=884776
%%%mzn-stat: circuitNumber2PropagationsThatFoundConflict=36501
%%%mzn-stat: circuitNumber2TotalFixedEdgesAtConflict=3215061
%%%mzn-stat: circuitNumber2NumberOfConflicts=36501
%%%mzn-stat: circuitNumber2PropagationsThatPruned=65821
%%%mzn-stat: circuitNumber2PropagationsTotal=615413
%%%mzn-stat: AverageConflictSize=17.53352743847663
%%%mzn-stat: NumUnitNogoodsLearned=0
%%%mzn-stat: AverageLearnedNogoodLength=56.368236982198276
%%%mzn-stat: AverageBacktrackAmount=0
%%%mzn-stat: AverageLbd=33.043383237880526
%%%mzn-stat: 2AutonomousSearchNumBackupCalled=6464
%%%mzn-stat: 2AutonomousSearchNumPredicatesRemoved=0
%%%mzn-stat: 2AutonomousSearchNumCalls=6467
%%%mzn-stat: 2AutonomousSearchNumPredicatesAdded=1954
%%%mzn-stat: 2AutonomousSearchAverageSizeOfHeap=0.9064481212308644
%%%mzn-stat: 2AutonomousSearchNumAssignedPredicatesEncountered=5862
%%%mzn-stat-end
maxleg = 403;
succ = array1d(1..100,[4, 5, 8, 10, 1, 9, 2, 11, 18, 13, 15, 14, 19, 7, 16, 17, 27, 28, 3, 31, 25, 6, 22, 23, 37, 12, 29, 20, 36, 24, 33, 42, 44, 26, 30, 46, 38, 39, 47, 34, 21, 50, 35, 49, 40, 48, 52, 51, 56, 58, 53, 32, 54, 63, 59, 60, 41, 61, 64, 57, 62, 65, 68, 69, 67, 43, 76, 75, 72, 73, 74, 79, 66, 55, 78, 86, 71, 80, 81, 93, 89, 84, 70, 77, 45, 100, 82, 92, 95, 96, 98, 94, 99, 83, 90, 85, 87, 97, 88, 91]);
% time elapsed: 453.86 s
----------
%%%mzn-stat: initTime=0.041717651
%%%mzn-stat: objective=388
%%%mzn-stat: nodes=523866
%%%mzn-stat: restarts=0
%%%mzn-stat: peakDepth=2250
%%%mzn-stat: solveTime=450.731554726
%%%mzn-stat: variables=3218
%%%mzn-stat: propagators=2719
%%%mzn-stat: failures=406311
%%%mzn-stat: propagations=11467229
%%%mzn-stat: nogoods=406311
%%%mzn-stat: numAtomicConstraintsPropagated=0
%%%mzn-stat: allDifferentNumber1PropagationsTotal=1544520
%%%mzn-stat: allDifferentNumber1PropagationsThatFoundConflict=123692
%%%mzn-stat: allDifferentNumber1PropagationsThatPruned=884870
%%%mzn-stat: allDifferentNumber1TotalValuesPruned=4432806
%%%mzn-stat: allDifferentNumber1TotalHallSetSizeConflict=593367
%%%mzn-stat: allDifferentNumber1NumberOfConflicts=123692
%%%mzn-stat: allDifferentNumber1MaxHallSetSizeConflict=18
%%%mzn-stat: allDifferentNumber1TotalPruningHallSetSize=12857089
%%%mzn-stat: allDifferentNumber1NumberOfPruningExplanations=4432806
%%%mzn-stat: allDifferentNumber1MaxPruningHallSetSize=30
%%%mzn-stat: allDifferentNumber1TotalFixedEdgesAtConflict=10889687
%%%mzn-stat: allDifferentNumber1TotalVarsInvolvedInPruning=3493019
%%%mzn-stat: allDifferentNumber1MaxValuesPrunedFromSingleVar=8
%%%mzn-stat: allDifferentNumber1TotalSccSizeAtPruning=5828119
%%%mzn-stat: allDifferentNumber1NumberOfSccPruningCalls=884870
%%%mzn-stat: circuitNumber2PropagationsThatFoundConflict=36502
%%%mzn-stat: circuitNumber2TotalFixedEdgesAtConflict=3215151
%%%mzn-stat: circuitNumber2NumberOfConflicts=36502
%%%mzn-stat: circuitNumber2PropagationsThatPruned=65823
%%%mzn-stat: circuitNumber2PropagationsTotal=615504
%%%mzn-stat: AverageConflictSize=17.53347558889619
%%%mzn-stat: NumUnitNogoodsLearned=0
%%%mzn-stat: AverageLearnedNogoodLength=56.36819825207784
%%%mzn-stat: AverageBacktrackAmount=0
%%%mzn-stat: AverageLbd=33.04329934459072
%%%mzn-stat: 2AutonomousSearchNumBackupCalled=8616
%%%mzn-stat: 2AutonomousSearchNumPredicatesRemoved=0
%%%mzn-stat: 2AutonomousSearchNumCalls=8620
%%%mzn-stat: 2AutonomousSearchNumPredicatesAdded=2085
%%%mzn-stat: 2AutonomousSearchAverageSizeOfHeap=0.9075406032482599
%%%mzn-stat: 2AutonomousSearchNumAssignedPredicatesEncountered=7823
%%%mzn-stat-end
maxleg = 388;
succ = array1d(1..100,[4, 5, 8, 10, 1, 9, 2, 11, 18, 13, 15, 14, 19, 7, 16, 17, 27, 28, 3, 31, 25, 6, 22, 23, 37, 12, 29, 20, 36, 24, 33, 42, 44, 26, 30, 46, 38, 39, 47, 34, 21, 50, 35, 49, 40, 48, 52, 51, 56, 58, 53, 32, 54, 63, 59, 60, 41, 61, 68, 57, 62, 65, 75, 69, 67, 43, 76, 78, 72, 73, 74, 55, 66, 77, 80, 86, 79, 45, 81, 85, 89, 64, 70, 82, 96, 100, 71, 92, 95, 93, 98, 94, 99, 83, 84, 90, 87, 97, 88, 91]);
% time elapsed: 453.89 s
----------
%%%mzn-stat: initTime=0.041717651
%%%mzn-stat: objective=364
%%%mzn-stat: nodes=526037
%%%mzn-stat: restarts=0
%%%mzn-stat: peakDepth=2250
%%%mzn-stat: solveTime=450.756458221
%%%mzn-stat: variables=3218
%%%mzn-stat: propagators=2719
%%%mzn-stat: failures=406312
%%%mzn-stat: propagations=11471741
%%%mzn-stat: nogoods=406312
%%%mzn-stat: numAtomicConstraintsPropagated=0
%%%mzn-stat: allDifferentNumber1PropagationsTotal=1544697
%%%mzn-stat: allDifferentNumber1PropagationsThatFoundConflict=123692
%%%mzn-stat: allDifferentNumber1PropagationsThatPruned=884959
%%%mzn-stat: allDifferentNumber1TotalValuesPruned=4433905
%%%mzn-stat: allDifferentNumber1TotalHallSetSizeConflict=593367
%%%mzn-stat: allDifferentNumber1NumberOfConflicts=123692
%%%mzn-stat: allDifferentNumber1MaxHallSetSizeConflict=18
%%%mzn-stat: allDifferentNumber1TotalPruningHallSetSize=12858409
%%%mzn-stat: allDifferentNumber1NumberOfPruningExplanations=4433905
%%%mzn-stat: allDifferentNumber1MaxPruningHallSetSize=30
%%%mzn-stat: allDifferentNumber1TotalFixedEdgesAtConflict=10889687
%%%mzn-stat: allDifferentNumber1TotalVarsInvolvedInPruning=3494098
%%%mzn-stat: allDifferentNumber1MaxValuesPrunedFromSingleVar=8
%%%mzn-stat: allDifferentNumber1TotalSccSizeAtPruning=5828278
%%%mzn-stat: allDifferentNumber1NumberOfSccPruningCalls=884959
%%%mzn-stat: circuitNumber2PropagationsThatFoundConflict=36503
%%%mzn-stat: circuitNumber2TotalFixedEdgesAtConflict=3215240
%%%mzn-stat: circuitNumber2NumberOfConflicts=36503
%%%mzn-stat: circuitNumber2PropagationsThatPruned=65828
%%%mzn-stat: circuitNumber2PropagationsTotal=615595
%%%mzn-stat: AverageConflictSize=17.533555494299947
%%%mzn-stat: NumUnitNogoodsLearned=0
%%%mzn-stat: AverageLearnedNogoodLength=56.36819980704483
%%%mzn-stat: AverageBacktrackAmount=0
%%%mzn-stat: AverageLbd=33.043341077792434
%%%mzn-stat: 2AutonomousSearchNumBackupCalled=10701
%%%mzn-stat: 2AutonomousSearchNumPredicatesRemoved=0
%%%mzn-stat: 2AutonomousSearchNumCalls=10706
%%%mzn-stat: 2AutonomousSearchNumPredicatesAdded=2212
%%%mzn-stat: 2AutonomousSearchAverageSizeOfHeap=0.9145339062208108
%%%mzn-stat: 2AutonomousSearchNumAssignedPredicatesEncountered=9791
%%%mzn-stat-end
maxleg = 364;
succ = array1d(1..100,[4, 5, 8, 10, 1, 9, 2, 11, 18, 13, 15, 14, 19, 7, 16, 17, 27, 28, 3, 31, 25, 6, 22, 23, 37, 12, 29, 20, 36, 24, 33, 42, 44, 26, 30, 46, 38, 39, 47, 34, 21, 55, 35, 49, 40, 48, 52, 51, 50, 58, 53, 32, 54, 63, 59, 60, 41, 61, 68, 43, 62, 65, 75, 69, 67, 45, 76, 78, 72, 56, 74, 79, 57, 77, 73, 86, 84, 80, 71, 93, 89, 64, 70, 81, 66, 100, 82, 92, 95, 96, 98, 94, 99, 83, 90, 85, 87, 97, 88, 91]);
% time elapsed: 453.93 s
----------
%%%mzn-stat: initTime=0.041717651
%%%mzn-stat: objective=362
%%%mzn-stat: nodes=528167
%%%mzn-stat: restarts=0
%%%mzn-stat: peakDepth=2250
%%%mzn-stat: solveTime=450.787449673
%%%mzn-stat: variables=3218
%%%mzn-stat: propagators=2719
%%%mzn-stat: failures=406318
%%%mzn-stat: propagations=11476646
%%%mzn-stat: nogoods=406318
%%%mzn-stat: numAtomicConstraintsPropagated=0
%%%mzn-stat: allDifferentNumber1PropagationsTotal=1544917
%%%mzn-stat: allDifferentNumber1PropagationsThatFoundConflict=123692
%%%mzn-stat: allDifferentNumber1PropagationsThatPruned=885074
%%%mzn-stat: allDifferentNumber1TotalValuesPruned=4435108
%%%mzn-stat: allDifferentNumber1TotalHallSetSizeConflict=593367
%%%mzn-stat: allDifferentNumber1NumberOfConflicts=123692
%%%mzn-stat: allDifferentNumber1MaxHallSetSizeConflict=18
%%%mzn-stat: allDifferentNumber1TotalPruningHallSetSize=12860088
%%%mzn-stat: allDifferentNumber1NumberOfPruningExplanations=4435108
%%%mzn-stat: allDifferentNumber1MaxPruningHallSetSize=30
%%%mzn-stat: allDifferentNumber1TotalFixedEdgesAtConflict=10889687
%%%mzn-stat: allDifferentNumber1TotalVarsInvolvedInPruning=3495243
%%%mzn-stat: allDifferentNumber1MaxValuesPrunedFromSingleVar=8
%%%mzn-stat: allDifferentNumber1TotalSccSizeAtPruning=5828625
%%%mzn-stat: allDifferentNumber1NumberOfSccPruningCalls=885074
%%%mzn-stat: circuitNumber2PropagationsThatFoundConflict=36509
%%%mzn-stat: circuitNumber2TotalFixedEdgesAtConflict=3215804
%%%mzn-stat: circuitNumber2NumberOfConflicts=36509
%%%mzn-stat: circuitNumber2PropagationsThatPruned=65841
%%%mzn-stat: circuitNumber2PropagationsTotal=615712
%%%mzn-stat: AverageConflictSize=17.53345901486028
%%%mzn-stat: NumUnitNogoodsLearned=0
%%%mzn-stat: AverageLearnedNogoodLength=56.36764553871598
%%%mzn-stat: AverageBacktrackAmount=0
%%%mzn-stat: AverageLbd=33.0429860355682
%%%mzn-stat: 2AutonomousSearchNumBackupCalled=12731
%%%mzn-stat: 2AutonomousSearchNumPredicatesRemoved=0
%%%mzn-stat: 2AutonomousSearchNumCalls=12737
%%%mzn-stat: 2AutonomousSearchNumPredicatesAdded=2413
%%%mzn-stat: 2AutonomousSearchAverageSizeOfHeap=0.9286331161183953
%%%mzn-stat: 2AutonomousSearchNumAssignedPredicatesEncountered=11828
%%%mzn-stat-end
maxleg = 362;
succ = array1d(1..100,[4, 5, 8, 10, 1, 9, 2, 11, 18, 13, 15, 14, 19, 7, 16, 20, 3, 28, 31, 33, 25, 6, 22, 23, 37, 12, 17, 32, 27, 24, 39, 42, 44, 26, 30, 29, 38, 41, 47, 34, 35, 55, 21, 49, 40, 36, 52, 45, 50, 58, 46, 61, 51, 48, 59, 60, 43, 65, 53, 57, 56, 76, 54, 69, 62, 73, 91, 63, 68, 83, 74, 64, 70, 72, 66, 86, 71, 75, 77, 78, 89, 81, 92, 82, 80, 100, 84, 99, 95, 96, 98, 94, 79, 88, 90, 85, 87, 97, 93, 67]);
% time elapsed: 453.98 s
----------
%%%mzn-stat: initTime=0.041717651
%%%mzn-stat: objective=351
%%%mzn-stat: nodes=530308
%%%mzn-stat: restarts=0
%%%mzn-stat: peakDepth=2250
%%%mzn-stat: solveTime=450.818056923
%%%mzn-stat: variables=3218
%%%mzn-stat: propagators=2719
%%%mzn-stat: failures=406325
%%%mzn-stat: propagations=11481375
%%%mzn-stat: nogoods=406325
%%%mzn-stat: numAtomicConstraintsPropagated=0
%%%mzn-stat: allDifferentNumber1PropagationsTotal=1545114
%%%mzn-stat: allDifferentNumber1PropagationsThatFoundConflict=123692
%%%mzn-stat: allDifferentNumber1PropagationsThatPruned=885175
%%%mzn-stat: allDifferentNumber1TotalValuesPruned=4436222
%%%mzn-stat: allDifferentNumber1TotalHallSetSizeConflict=593367
%%%mzn-stat: allDifferentNumber1NumberOfConflicts=123692
%%%mzn-stat: allDifferentNumber1MaxHallSetSizeConflict=18
%%%mzn-stat: allDifferentNumber1TotalPruningHallSetSize=12861505
%%%mzn-stat: allDifferentNumber1NumberOfPruningExplanations=4436222
%%%mzn-stat: allDifferentNumber1MaxPruningHallSetSize=30
%%%mzn-stat: allDifferentNumber1TotalFixedEdgesAtConflict=10889687
%%%mzn-stat: allDifferentNumber1TotalVarsInvolvedInPruning=3496317
%%%mzn-stat: allDifferentNumber1MaxValuesPrunedFromSingleVar=8
%%%mzn-stat: allDifferentNumber1TotalSccSizeAtPruning=5828817
%%%mzn-stat: allDifferentNumber1NumberOfSccPruningCalls=885175
%%%mzn-stat: circuitNumber2PropagationsThatFoundConflict=36515
%%%mzn-stat: circuitNumber2TotalFixedEdgesAtConflict=3216367
%%%mzn-stat: circuitNumber2NumberOfConflicts=36515
%%%mzn-stat: circuitNumber2PropagationsThatPruned=65847
%%%mzn-stat: circuitNumber2PropagationsTotal=615814
%%%mzn-stat: AverageConflictSize=17.533651633544576
%%%mzn-stat: NumUnitNogoodsLearned=0
%%%mzn-stat: AverageLearnedNogoodLength=56.36724543161262
%%%mzn-stat: AverageBacktrackAmount=0
%%%mzn-stat: AverageLbd=33.042837629976006
%%%mzn-stat: 2AutonomousSearchNumBackupCalled=14778
%%%mzn-stat: 2AutonomousSearchNumPredicatesRemoved=0
%%%mzn-stat: 2AutonomousSearchNumCalls=14785
%%%mzn-stat: 2AutonomousSearchNumPredicatesAdded=2746
%%%mzn-stat: 2AutonomousSearchAverageSizeOfHeap=0.9412918498478188
%%%mzn-stat: 2AutonomousSearchNumAssignedPredicatesEncountered=13917
%%%mzn-stat-end
maxleg = 351;
succ = array1d(1..100,[4, 5, 8, 10, 1, 9, 2, 11, 18, 21, 15, 14, 19, 7, 13, 3, 27, 28, 20, 31, 25, 6, 22, 23, 37, 12, 29, 16, 36, 24, 33, 17, 42, 26, 30, 46, 38, 39, 44, 34, 35, 32, 40, 47, 48, 51, 41, 54, 50, 58, 53, 61, 59, 63, 72, 49, 43, 65, 55, 56, 62, 76, 68, 69, 67, 45, 100, 75, 79, 57, 74, 64, 60, 77, 73, 91, 84, 66, 71, 85, 89, 81, 70, 95, 96, 52, 82, 92, 80, 93, 98, 94, 99, 83, 78, 90, 87, 97, 88, 86]);
% time elapsed: 454.02 s
----------
%%%mzn-stat: initTime=0.041717651
%%%mzn-stat: objective=342
%%%mzn-stat: nodes=532401
%%%mzn-stat: restarts=0
%%%mzn-stat: peakDepth=2250
%%%mzn-stat: solveTime=450.84194209
%%%mzn-stat: variables=3218
%%%mzn-stat: propagators=2719
%%%mzn-stat: failures=406325
%%%mzn-stat: propagations=11485910
%%%mzn-stat: nogoods=406325
%%%mzn-stat: numAtomicConstraintsPropagated=0
%%%mzn-stat: allDifferentNumber1PropagationsTotal=1545283
%%%mzn-stat: allDifferentNumber1PropagationsThatFoundConflict=123692
%%%mzn-stat: allDifferentNumber1PropagationsThatPruned=885261
%%%mzn-stat: allDifferentNumber1TotalValuesPruned=4437272
%%%mzn-stat: allDifferentNumber1TotalHallSetSizeConflict=593367
%%%mzn-stat: allDifferentNumber1NumberOfConflicts=123692
%%%mzn-stat: allDifferentNumber1MaxHallSetSizeConflict=18
%%%mzn-stat: allDifferentNumber1TotalPruningHallSetSize=12862938
%%%mzn-stat: allDifferentNumber1NumberOfPruningExplanations=4437272
%%%mzn-stat: allDifferentNumber1MaxPruningHallSetSize=30
%%%mzn-stat: allDifferentNumber1TotalFixedEdgesAtConflict=10889687
%%%mzn-stat: allDifferentNumber1TotalVarsInvolvedInPruning=3497335
%%%mzn-stat: allDifferentNumber1MaxValuesPrunedFromSingleVar=8
%%%mzn-stat: allDifferentNumber1TotalSccSizeAtPruning=5828981
%%%mzn-stat: allDifferentNumber1NumberOfSccPruningCalls=885261
%%%mzn-stat: circuitNumber2PropagationsThatFoundConflict=36515
%%%mzn-stat: circuitNumber2TotalFixedEdgesAtConflict=3216367
%%%mzn-stat: circuitNumber2NumberOfConflicts=36515
%%%mzn-stat: circuitNumber2PropagationsThatPruned=65852
%%%mzn-stat: circuitNumber2PropagationsTotal=615901
%%%mzn-stat: AverageConflictSize=17.533651633544576
%%%mzn-stat: NumUnitNogoodsLearned=0
%%%mzn-stat: AverageLearnedNogoodLength=56.36724543161262
%%%mzn-stat: AverageBacktrackAmount=0
%%%mzn-stat: AverageLbd=33.042837629976006
%%%mzn-stat: 2AutonomousSearchNumBackupCalled=16788
%%%mzn-stat: 2AutonomousSearchNumPredicatesRemoved=0
%%%mzn-stat: 2AutonomousSearchNumCalls=16796
%%%mzn-stat: 2AutonomousSearchNumPredicatesAdded=2746
%%%mzn-stat: 2AutonomousSearchAverageSizeOfHeap=0.9529649916646821
%%%mzn-stat: 2AutonomousSearchNumAssignedPredicatesEncountered=16006
%%%mzn-stat-end
maxleg = 342;
succ = array1d(1..100,[4, 5, 8, 10, 1, 9, 2, 11, 18, 21, 15, 14, 19, 7, 13, 3, 27, 28, 20, 31, 25, 6, 22, 23, 37, 12, 29, 16, 36, 24, 33, 17, 42, 26, 30, 46, 38, 39, 44, 34, 35, 32, 40, 47, 48, 51, 41, 54, 50, 58, 53, 61, 59, 63, 72, 49, 43, 65, 68, 56, 62, 76, 75, 69, 67, 45, 100, 78, 79, 57, 74, 64, 60, 55, 73, 91, 71, 66, 81, 85, 82, 84, 70, 95, 96, 52, 77, 92, 80, 93, 98, 94, 99, 83, 89, 90, 87, 97, 88, 86]);
% time elapsed: 454.06 s
----------
%%%mzn-stat: initTime=0.041717651
%%%mzn-stat: objective=336
%%%mzn-stat: nodes=534483
%%%mzn-stat: restarts=0
%%%mzn-stat: peakDepth=2250
%%%mzn-stat: solveTime=450.866681422
%%%mzn-stat: variables=3218
%%%mzn-stat: propagators=2719
%%%mzn-stat: failures=406326
%%%mzn-stat: propagations=11490468
%%%mzn-stat: nogoods=406326
%%%mzn-stat: numAtomicConstraintsPropagated=0
%%%mzn-stat: allDifferentNumber1PropagationsTotal=1545453
%%%mzn-stat: allDifferentNumber1PropagationsThatFoundConflict=123692
%%%mzn-stat: allDifferentNumber1PropagationsThatPruned=885347
%%%mzn-stat: allDifferentNumber1TotalValuesPruned=4438313
%%%mzn-stat: allDifferentNumber1TotalHallSetSizeConflict=593367
%%%mzn-stat: allDifferentNumber1NumberOfConflicts=123692
%%%mzn-stat: allDifferentNumber1MaxHallSetSizeConflict=18
%%%mzn-stat: allDifferentNumber1TotalPruningHallSetSize=12864340
%%%mzn-stat: allDifferentNumber1NumberOfPruningExplanations=4438313
%%%mzn-stat: allDifferentNumber1MaxPruningHallSetSize=30
%%%mzn-stat: allDifferentNumber1TotalFixedEdgesAtConflict=10889687
%%%mzn-stat: allDifferentNumber1TotalVarsInvolvedInPruning=3498344
%%%mzn-stat: allDifferentNumber1MaxValuesPrunedFromSingleVar=8
%%%mzn-stat: allDifferentNumber1TotalSccSizeAtPruning=5829141
%%%mzn-stat: allDifferentNumber1NumberOfSccPruningCalls=885347
%%%mzn-stat: circuitNumber2PropagationsThatFoundConflict=36516
%%%mzn-stat: circuitNumber2TotalFixedEdgesAtConflict=3216462
%%%mzn-stat: circuitNumber2NumberOfConflicts=36516
%%%mzn-stat: circuitNumber2PropagationsThatPruned=65856
%%%mzn-stat: circuitNumber2PropagationsTotal=615988
%%%mzn-stat: AverageConflictSize=17.533613404015494
%%%mzn-stat: NumUnitNogoodsLearned=0
%%%mzn-stat: AverageLearnedNogoodLength=56.36712147389042
%%%mzn-stat: AverageBacktrackAmount=0
%%%mzn-stat: AverageLbd=33.04276615328578
%%%mzn-stat: 2AutonomousSearchNumBackupCalled=18786
%%%mzn-stat: 2AutonomousSearchNumPredicatesRemoved=0
%%%mzn-stat: 2AutonomousSearchNumCalls=18795
%%%mzn-stat: 2AutonomousSearchNumPredicatesAdded=2783
%%%mzn-stat: 2AutonomousSearchAverageSizeOfHeap=0.962756052141527
%%%mzn-stat: 2AutonomousSearchNumAssignedPredicatesEncountered=18095
%%%mzn-stat-end
maxleg = 336;
succ = array1d(1..100,[4, 5, 8, 10, 1, 9, 2, 11, 18, 21, 15, 14, 19, 7, 13, 3, 27, 28, 20, 31, 25, 6, 22, 23, 37, 12, 29, 16, 36, 24, 33, 17, 42, 26, 30, 46, 38, 39, 44, 34, 35, 32, 40, 47, 48, 51, 41, 54, 50, 58, 53, 61, 59, 63, 72, 49, 43, 65, 68, 56, 62, 76, 75, 69, 67, 45, 100, 78, 79, 57, 74, 64, 60, 55, 73, 91, 71, 66, 81, 85, 82, 97, 70, 95, 96, 52, 77, 92, 80, 93, 87, 94, 99, 83, 89, 90, 98, 84, 88, 86]);
% time elapsed: 454.10 s
----------
%%%mzn-stat: initTime=0.041717651
%%%mzn-stat: objective=333
%%%mzn-stat: nodes=536521
%%%mzn-stat: restarts=0
%%%mzn-stat: peakDepth=2250
%%%mzn-stat: solveTime=450.889707592
%%%mzn-stat: variables=3218
%%%mzn-stat: propagators=2719
%%%mzn-stat: failures=406326
%%%mzn-stat: propagations=11494995
%%%mzn-stat: nogoods=406326
%%%mzn-stat: numAtomicConstraintsPropagated=0
%%%mzn-stat: allDifferentNumber1PropagationsTotal=1545621
%%%mzn-stat: allDifferentNumber1PropagationsThatFoundConflict=123692
%%%mzn-stat: allDifferentNumber1PropagationsThatPruned=885432
%%%mzn-stat: allDifferentNumber1TotalValuesPruned=4439344
%%%mzn-stat: allDifferentNumber1TotalHallSetSizeConflict=593367
%%%mzn-stat: allDifferentNumber1NumberOfConflicts=123692
%%%mzn-stat: allDifferentNumber1MaxHallSetSizeConflict=18
%%%mzn-stat: allDifferentNumber1TotalPruningHallSetSize=12865732
%%%mzn-stat: allDifferentNumber1NumberOfPruningExplanations=4439344
%%%mzn-stat: allDifferentNumber1MaxPruningHallSetSize=30
%%%mzn-stat: allDifferentNumber1TotalFixedEdgesAtConflict=10889687
%%%mzn-stat: allDifferentNumber1TotalVarsInvolvedInPruning=3499343
%%%mzn-stat: allDifferentNumber1MaxValuesPrunedFromSingleVar=8
%%%mzn-stat: allDifferentNumber1TotalSccSizeAtPruning=5829300
%%%mzn-stat: allDifferentNumber1NumberOfSccPruningCalls=885432
%%%mzn-stat: circuitNumber2PropagationsThatFoundConflict=36516
%%%mzn-stat: circuitNumber2TotalFixedEdgesAtConflict=3216462
%%%mzn-stat: circuitNumber2NumberOfConflicts=36516
%%%mzn-stat: circuitNumber2PropagationsThatPruned=65860
%%%mzn-stat: circuitNumber2PropagationsTotal=616074
%%%mzn-stat: AverageConflictSize=17.533613404015494
%%%mzn-stat: NumUnitNogoodsLearned=0
%%%mzn-stat: AverageLearnedNogoodLength=56.36712147389042
%%%mzn-stat: AverageBacktrackAmount=0
%%%mzn-stat: AverageLbd=33.04276615328578
%%%mzn-stat: 2AutonomousSearchNumBackupCalled=20741
%%%mzn-stat: 2AutonomousSearchNumPredicatesRemoved=0
%%%mzn-stat: 2AutonomousSearchNumCalls=20751
%%%mzn-stat: 2AutonomousSearchNumPredicatesAdded=2783
%%%mzn-stat: 2AutonomousSearchAverageSizeOfHeap=0.9726760156137053
%%%mzn-stat: 2AutonomousSearchNumAssignedPredicatesEncountered=20184
%%%mzn-stat-end
maxleg = 333;
succ = array1d(1..100,[4, 5, 8, 10, 1, 9, 2, 11, 18, 21, 15, 14, 19, 7, 13, 3, 27, 28, 20, 31, 25, 6, 22, 23, 37, 12, 29, 16, 36, 24, 33, 17, 42, 26, 30, 46, 38, 39, 44, 34, 35, 32, 40, 47, 63, 48, 41, 54, 50, 58, 53, 61, 59, 51, 72, 49, 43, 65, 68, 56, 62, 76, 75, 69, 67, 45, 100, 78, 79, 57, 74, 64, 60, 55, 73, 91, 71, 66, 81, 85, 82, 97, 70, 95, 96, 52, 77, 92, 80, 93, 87, 94, 99, 83, 89, 90, 98, 84, 88, 86]);
% time elapsed: 454.13 s
----------
%%%mzn-stat: initTime=0.041717651
%%%mzn-stat: objective=333
%%%mzn-stat: nodes=1778462
%%%mzn-stat: restarts=0
%%%mzn-stat: peakDepth=2250
%%%mzn-stat: solveTime=1796.878732129
%%%mzn-stat: variables=3218
%%%mzn-stat: propagators=2719
%%%mzn-stat: failures=1634231
%%%mzn-stat: propagations=45677961
%%%mzn-stat: nogoods=1634231
%%%mzn-stat: numAtomicConstraintsPropagated=0
%%%mzn-stat: allDifferentNumber1PropagationsTotal=6520024
%%%mzn-stat: allDifferentNumber1PropagationsThatFoundConflict=190311
%%%mzn-stat: allDifferentNumber1PropagationsThatPruned=4161405
%%%mzn-stat: allDifferentNumber1TotalValuesPruned=16271193
%%%mzn-stat: allDifferentNumber1TotalHallSetSizeConflict=1292217
%%%mzn-stat: allDifferentNumber1NumberOfConflicts=190311
%%%mzn-stat: allDifferentNumber1MaxHallSetSizeConflict=20
%%%mzn-stat: allDifferentNumber1TotalPruningHallSetSize=84499222
%%%mzn-stat: allDifferentNumber1NumberOfPruningExplanations=16271193
%%%mzn-stat: allDifferentNumber1MaxPruningHallSetSize=31
%%%mzn-stat: allDifferentNumber1TotalFixedEdgesAtConflict=16352934
%%%mzn-stat: allDifferentNumber1TotalVarsInvolvedInPruning=13101139
%%%mzn-stat: allDifferentNumber1MaxValuesPrunedFromSingleVar=8
%%%mzn-stat: allDifferentNumber1TotalSccSizeAtPruning=70141858
%%%mzn-stat: allDifferentNumber1NumberOfSccPruningCalls=4161405
%%%mzn-stat: circuitNumber2PropagationsThatFoundConflict=56786
%%%mzn-stat: circuitNumber2TotalFixedEdgesAtConflict=4904096
%%%mzn-stat: circuitNumber2NumberOfConflicts=56786
%%%mzn-stat: circuitNumber2PropagationsThatPruned=490240
%%%mzn-stat: circuitNumber2PropagationsTotal=2391652
%%%mzn-stat: AverageConflictSize=21.78994707602536
%%%mzn-stat: NumUnitNogoodsLearned=0
%%%mzn-stat: AverageLearnedNogoodLength=78.51985979950203
%%%mzn-stat: AverageBacktrackAmount=0
%%%mzn-stat: AverageLbd=27.11196336380842
%%%mzn-stat: 2AutonomousSearchNumBackupCalled=20741
%%%mzn-stat: 2AutonomousSearchNumPredicatesRemoved=0
%%%mzn-stat: 2AutonomousSearchNumCalls=20751
%%%mzn-stat: 2AutonomousSearchNumPredicatesAdded=5501
%%%mzn-stat: 2AutonomousSearchAverageSizeOfHeap=0.9726760156137053
%%%mzn-stat: 2AutonomousSearchNumAssignedPredicatesEncountered=20184
%%%mzn-stat-end
